c This is QMaxSAT 2017 based on 14.07
c This is Glucose 3.0
c This is MiniSat 2.2.0
c WARNING: for repeatability, setting FPU to use double precision
c card = mrwto, comp = 0, pmodel = 0, narr = 3, mct = 16, verb = 0
cr firstCPXsol 0 0 0
c top = 214379
c |  Number of variables:    3918                                             |
c |  Number of clauses:      325641                                           |
c |  Weight of hard clauses: 214379                                           |
c |  Number of soft clauses: 720                                              |
c |  Number of unit soft clauses: 720                                         |
c |  Maximum Cardinality (by unit): 643134       (643134      )               |
c last restart ## conflicts  :  0 273 
o 7526 | cpuTime 0.033769 s
c Sum of weights = 214378
c A number of soft clauses remained = 240
c MRWTO encoding for Pseudo-Boolean Constraints
c sizeMax=7526
c No.0 Divisor=10	generated by pow1
c No.1 Divisor=10	generated by pow1
c No.2 Divisor=10	generated by pow1
c No.3 Divisor=10	generated by pow1
c p0= 10	p1= 10	p2= 10	p3= 10	
c number of digits = 5
c linkingVar[0].size = 10, linkingVar[1].size = 10, linkingVar[2].size = 10, linkingVar[3].size = 8, linkingVar[4].size = 1, 
c Pseudo-Boolean Constraints: 6457 variables and 59049 clauses
c Sum of weights = 214378
c A number of soft clauses remained = 240
c MRWTO encoding for Pseudo-Boolean Constraints
c sizeMax=7526
c No.0 Divisor=10	generated by pow1
c No.1 Divisor=10	generated by pow1
c No.2 Divisor=10	generated by pow1
c No.3 Divisor=10	generated by pow1
c p0= 10	p1= 10	p2= 10	p3= 10	
c number of digits = 5
c linkingVar[0].size = 10, linkingVar[1].size = 10, linkingVar[2].size = 10, linkingVar[3].size = 8, linkingVar[4].size = 1, 
c Pseudo-Boolean Constraints: 6457 variables and 59049 clauses
c Sum of weights = 214378
c A number of soft clauses remained = 240
c MRWTO encoding for Pseudo-Boolean Constraints
c sizeMax=7526
c No.0 Divisor=10	generated by pow1
c No.1 Divisor=10	generated by pow1
c No.2 Divisor=10	generated by pow1
c No.3 Divisor=10	generated by pow1
c p0= 10	p1= 10	p2= 10	p3= 10	
c number of digits = 5
c linkingVar[0].size = 10, linkingVar[1].size = 10, linkingVar[2].size = 10, linkingVar[3].size = 8, linkingVar[4].size = 1, 
c Pseudo-Boolean Constraints: 6457 variables and 59049 clauses
c last restart ## conflicts  :  124 2462 
o 6128 | cpuTime 0.119546 s
c last restart ## conflicts  :  44 3990 
o 5358 | cpuTime 0.129553 s
c last restart ## conflicts  :  88 4956 
o 5297 | cpuTime 0.139688 s
c last restart ## conflicts  :  70 2336 
o 5281 | cpuTime 0.154972 s
c last restart ## conflicts  :  134 1230 
o 5195 | cpuTime 0.467322 s
c last restart ## conflicts  :  108 3736 
o 5144 | cpuTime 0.481368 s
s OPTIMUM FOUND
cr positiVarArr: [ | 8@1(1->8) | 87@1(6->7) | 97@1(7->1) | 128@1(8->16) | 182@1(12->6) | 206@1(13->14) | 223@1(14->15) | 236@1(15->12) | 253@1(16->13) | 267@2(1->11) | 417@2(11->1) | 515@3(1->3) | 538@3(2->10) | 546@3(3->2) | 561@3(4->1) | 580@3(5->4) | 645@3(9->5) | 665@3(10->9) | ]
cr the 1-th chain: [ 1->8->16->13->14->15->12->6->7->1 ] (#non-depot=8) {#cumul.=9}
cr the 2-th chain: [ 1->11->1 ] (#non-depot=1) {#cumul.=10}
cr the 3-th chain: [ 1->3->2->10->9->5->4->1 ] (#non-depot=6) {#cumul.=16}
c Latest Answer = 0 by 7 loops
c restarts              : 10636
c conflicts             : 2512478        (6416 /sec)
c decisions             : 6992418        (0.00 % random) (17856 /sec)
c propagations          : 1360825250     (3475077 /sec)
c conflict literals     : 408911376      (50.09 % deleted)
c Memory used           : 277.00 MB
c CPU time              : 391.596 s
